\ This file has been generated by DOcplex
\ ENCODING=ISO-8859-1
\Problem name: random_problem.lp

Minimize
 obj: - 236 x0 - 118 x1 - 312 x2 - 156 x3 - 340 x4 - 170 x5 - 104 x6 - 52 x7 + [
      2448 x0^2 + 2448 x0*x1 + 736 x0*x4 + 368 x0*x5 + 560 x0*x6 + 280 x0*x7
      + 612 x1^2 + 368 x1*x4 + 184 x1*x5 + 280 x1*x6 + 140 x1*x7 + 1168 x2^2
      + 1168 x2*x3 - 320 x2*x4 - 160 x2*x5 - 288 x2*x6 - 144 x2*x7 + 292 x3^2
      - 160 x3*x4 - 80 x3*x5 - 144 x3*x6 - 72 x3*x7 + 528 x4^2 + 528 x4*x5
      + 288 x4*x6 + 144 x4*x7 + 132 x5^2 + 144 x5*x6 + 72 x5*x7 + 2608 x6^2
      + 2608 x6*x7 + 652 x7^2 ]/2
Subject To
 c0: 2 x0 + x1 + 2 x2 + x3 + 2 x4 + x5 + 2 x6 + x7 = 3

Bounds
 0 <= x0 <= 1
 0 <= x1 <= 1
 0 <= x2 <= 1
 0 <= x3 <= 1
 0 <= x4 <= 1
 0 <= x5 <= 1
 0 <= x6 <= 1
 0 <= x7 <= 1

Binaries
 x0 x1 x2 x3 x4 x5 x6 x7
End
